p wcnf 120 1300
6 -118 119 0
9 -116 118 0
3 -114 120 0
2 -111 -114 0
2 -111 -113 0
5 -111 -112 0
2 -110 115 0
4 -109 -114 0
9 -102 106 0
6 -101 105 0
7 -101 114 0
5 -99 -108 0
2 -99 116 0
6 -99 117 0
5 -99 118 0
5 -98 -102 0
6 -98 -101 0
3 -98 103 0
3 -96 -106 0
4 -95 -108 0
3 -95 98 0
3 -95 116 0
1 -95 119 0
9 -94 95 0
7 -94 114 0
5 -93 -106 0
3 -93 99 0
2 -93 107 0
9 -92 -115 0
6 -92 -107 0
6 -92 -95 0
5 -92 -93 0
6 -91 -119 0
8 -91 97 0
7 -91 104 0
7 -91 117 0
3 -90 -119 0
8 -90 -114 0
1 -90 -99 0
1 -90 108 0
3 -89 -110 0
7 -89 105 0
5 -88 -93 0
4 -88 -92 0
3 -88 103 0
9 -88 107 0
8 -87 -90 0
8 -87 112 0
2 -86 115 0
1 -85 -100 0
3 -85 93 0
4 -85 104 0
4 -84 -85 0
3 -84 87 0
3 -84 111 0
10 -83 -90 0
8 -83 86 0
6 -83 112 0
2 -83 117 0
7 -82 -99 0
2 -82 94 0
7 -82 98 0
3 -81 -117 0
6 -81 -88 0
5 -81 95 0
8 -81 107 0
3 -80 -118 0
7 -80 -105 0
6 -80 -81 0
3 -80 93 0
7 -80 110 0
8 -79 -106 0
10 -79 -100 0
2 -79 89 0
3 -79 91 0
3 -78 -115 0
1 -78 -86 0
10 -78 89 0
1 -78 107 0
2 -77 -103 0
1 -77 85 0
3 -77 94 0
5 -77 98 0
4 -77 99 0
6 -77 119 0
7 -76 -99 0
3 -76 -96 0
3 -76 -91 0
3 -76 -84 0
4 -76 116 0
9 -76 119 0
4 -75 -114 0
2 -75 -107 0
2 -75 -88 0
9 -75 -85 0
6 -75 -82 0
9 -75 -79 0
2 -75 98 0
3 -75 117 0
5 -74 -118 0
4 -74 -101 0
8 -74 84 0
3 -74 113 0
4 -74 118 0
10 -73 -103 0
5 -73 -100 0
6 -73 -83 0
10 -73 88 0
5 -72 -100 0
6 -72 -96 0
2 -72 77 0
5 -71 -110 0
9 -71 77 0
6 -71 106 0
7 -71 111 0
4 -70 103 0
3 -70 107 0
10 -70 117 0
7 -69 -77 0
5 -69 -74 0
4 -69 72 0
6 -69 118 0
7 -68 -110 0
5 -68 -74 0
6 -68 109 0
6 -67 -116 0
9 -67 -109 0
5 -67 -98 0
7 -67 -90 0
2 -67 -85 0
9 -67 -77 0
2 -67 71 0
9 -67 75 0
3 -67 103 0
5 -67 106 0
9 -67 115 0
6 -66 -113 0
10 -66 -110 0
9 -66 -107 0
10 -66 -90 0
6 -66 -80 0
9 -66 74 0
4 -66 85 0
5 -66 97 0
5 -66 101 0
2 -65 -102 0
8 -65 -94 0
7 -65 -88 0
1 -65 -70 0
5 -65 -66 0
2 -65 71 0
4 -64 -84 0
9 -64 -73 0
8 -64 117 0
8 -63 -100 0
6 -63 -93 0
5 -62 89 0
7 -62 103 0
1 -62 105 0
2 -61 -87 0
8 -61 -69 0
10 -61 -68 0
3 -61 63 0
7 -61 80 0
2 -60 -97 0
6 -60 106 0
6 -60 108 0
7 -60 109 0
6 -59 -84 0
5 -59 -81 0
7 -59 114 0
2 -58 60 0
4 -58 91 0
2 -57 -98 0
6 -57 -65 0
8 -57 91 0
2 -57 100 0
4 -57 102 0
5 -57 110 0
2 -56 -107 0
8 -56 -97 0
6 -56 -95 0
6 -56 -88 0
8 -56 -86 0
5 -56 -63 0
4 -56 66 0
3 -56 71 0
9 -56 104 0
10 -55 -85 0
4 -55 -84 0
10 -55 -81 0
8 -55 104 0
3 -55 118 0
3 -54 -98 0
5 -54 -75 0
4 -54 -61 0
8 -54 75 0
1 -54 78 0
2 -54 90 0
4 -54 94 0
5 -54 120 0
8 -53 -106 0
5 -53 -62 0
8 -53 -60 0
9 -53 77 0
1 -53 104 0
7 -53 111 0
10 -52 -92 0
5 -52 -88 0
2 -52 -66 0
2 -52 -62 0
3 -52 70 0
7 -52 88 0
7 -52 111 0
9 -52 112 0
2 -52 113 0
10 -51 -54 0
3 -51 59 0
10 -51 61 0
9 -51 76 0
5 -51 92 0
10 -51 95 0
7 -51 115 0
7 -50 -114 0
2 -50 -101 0
2 -50 -74 0
1 -50 115 0
9 -49 -85 0
3 -49 -83 0
2 -49 -52 0
3 -49 -50 0
7 -49 54 0
9 -49 57 0
8 -49 61 0
5 -49 63 0
8 -49 85 0
8 -49 96 0
2 -49 101 0
7 -49 115 0
2 -48 -100 0
3 -48 -87 0
9 -48 -76 0
4 -48 50 0
9 -48 58 0
6 -48 73 0
3 -48 76 0
2 -48 92 0
5 -48 95 0
5 -47 -84 0
2 -47 -80 0
4 -47 -59 0
9 -47 85 0
1 -47 86 0
1 -47 93 0
6 -47 120 0
3 -46 -110 0
3 -46 -99 0
7 -46 -94 0
2 -46 -86 0
4 -46 88 0
8 -46 100 0
5 -45 -118 0
1 -45 -110 0
7 -45 -100 0
2 -45 -87 0
6 -45 -71 0
4 -45 47 0
9 -45 68 0
6 -45 73 0
2 -45 80 0
1 -44 -84 0
8 -44 -74 0
9 -44 -70 0
4 -44 72 0
8 -44 85 0
5 -43 -116 0
6 -43 -109 0
9 -43 -52 0
9 -43 59 0
1 -43 95 0
10 -43 113 0
3 -42 -99 0
9 -42 -90 0
1 -42 -84 0
3 -42 -78 0
5 -42 -56 0
3 -42 105 0
5 -42 109 0
2 -42 110 0
4 -41 -107 0
9 -41 -94 0
9 -41 -84 0
8 -41 -79 0
9 -41 -69 0
6 -41 -67 0
9 -41 -42 0
4 -41 43 0
9 -41 62 0
8 -41 73 0
10 -41 80 0
10 -41 102 0
8 -41 111 0
8 -40 -114 0
9 -40 -106 0
2 -40 -96 0
6 -40 -77 0
3 -40 -72 0
7 -40 114 0
5 -40 116 0
2 -39 -95 0
7 -39 -69 0
5 -39 -62 0
4 -39 -45 0
6 -39 76 0
5 -39 87 0
7 -39 92 0
1 -38 -88 0
7 -38 -82 0
2 -38 -55 0
2 -38 61 0
10 -38 78 0
9 -38 96 0
1 -38 108 0
7 -38 110 0
8 -38 113 0
6 -38 117 0
6 -37 -81 0
3 -37 -76 0
4 -37 -56 0
3 -37 -42 0
2 -37 -38 0
4 -37 48 0
1 -37 67 0
10 -37 84 0
3 -37 89 0
2 -37 95 0
6 -37 102 0
5 -36 -102 0
8 -36 38 0
10 -36 107 0
7 -35 -118 0
5 -35 -64 0
5 -35 60 0
10 -35 89 0
2 -35 102 0
8 -34 -118 0
7 -34 -117 0
2 -34 -88 0
5 -34 -55 0
8 -34 51 0
3 -34 71 0
4 -34 76 0
7 -34 78 0
3 -34 98 0
2 -34 100 0
5 -33 -119 0
8 -33 -102 0
6 -33 -78 0
7 -33 -38 0
2 -33 62 0
9 -33 93 0
8 -32 -100 0
5 -32 -99 0
9 -32 -89 0
8 -32 39 0
7 -32 55 0
10 -32 78 0
4 -32 80 0
3 -31 -108 0
8 -31 82 0
4 -31 98 0
8 -31 108 0
3 -30 -107 0
7 -30 -91 0
8 -30 -62 0
4 -30 -55 0
5 -30 49 0
5 -30 52 0
5 -30 56 0
9 -30 84 0
2 -29 -117 0
7 -29 -116 0
4 -29 -108 0
8 -29 -75 0
9 -29 -63 0
4 -29 -47 0
3 -29 46 0
7 -29 76 0
10 -28 -85 0
9 -28 -43 0
9 -28 -41 0
8 -28 42 0
7 -28 54 0
4 -28 67 0
7 -28 83 0
5 -28 101 0
1 -28 118 0
7 -27 -113 0
8 -27 -66 0
3 -27 43 0
5 -27 71 0
1 -27 84 0
1 -27 106 0
7 -27 112 0
7 -26 -100 0
8 -26 -99 0
1 -26 -97 0
3 -26 -94 0
3 -26 -89 0
5 -26 -62 0
2 -26 41 0
4 -26 78 0
2 -26 90 0
5 -26 94 0
2 -26 102 0
1 -25 -110 0
8 -25 -73 0
4 -25 32 0
8 -25 37 0
8 -25 80 0
4 -25 87 0
6 -25 97 0
6 -25 111 0
10 -24 -63 0
10 -24 -60 0
3 -24 -36 0
5 -24 -26 0
1 -24 31 0
9 -24 63 0
2 -24 87 0
3 -24 96 0
4 -24 118 0
3 -23 -119 0
3 -23 -112 0
1 -23 -92 0
9 -23 -79 0
1 -23 -36 0
1 -23 84 0
2 -23 96 0
3 -22 -120 0
5 -22 -111 0
3 -22 -97 0
6 -22 -34 0
6 -22 34 0
7 -22 39 0
7 -22 61 0
6 -22 93 0
5 -21 -112 0
1 -21 -97 0
4 -21 -89 0
3 -21 -73 0
4 -21 -65 0
9 -21 -49 0
8 -21 -44 0
3 -21 29 0
9 -21 46 0
10 -21 62 0
7 -20 -115 0
9 -20 -76 0
9 -20 -70 0
9 -20 -54 0
2 -20 -42 0
3 -20 33 0
1 -20 49 0
4 -20 69 0
3 -20 85 0
9 -19 -120 0
5 -19 -101 0
4 -19 -100 0
2 -19 -64 0
7 -19 29 0
8 -19 41 0
4 -19 45 0
2 -19 46 0
4 -19 48 0
10 -19 92 0
8 -19 110 0
10 -19 111 0
5 -19 119 0
8 -18 -78 0
4 -18 -69 0
7 -18 -55 0
2 -18 -36 0
3 -18 23 0
5 -18 62 0
4 -18 65 0
2 -18 96 0
4 -18 108 0
2 -17 -69 0
2 -17 -65 0
3 -17 -51 0
9 -17 -28 0
3 -17 -22 0
5 -17 -21 0
10 -17 65 0
6 -17 89 0
7 -16 -110 0
9 -16 -84 0
10 -16 -65 0
1 -16 -60 0
10 -16 -49 0
6 -16 -24 0
8 -16 73 0
3 -16 78 0
8 -16 108 0
3 -15 -118 0
3 -15 -91 0
6 -15 -87 0
2 -15 -28 0
7 -15 33 0
4 -15 63 0
5 -15 90 0
4 -15 92 0
5 -14 -105 0
8 -14 -92 0
8 -14 -58 0
8 -14 -31 0
9 -14 -18 0
2 -14 20 0
9 -14 37 0
10 -14 62 0
4 -14 76 0
8 -14 82 0
3 -14 94 0
8 -14 104 0
8 -14 118 0
8 -13 -114 0
5 -13 -87 0
7 -13 -83 0
8 -13 -50 0
5 -13 22 0
6 -13 65 0
4 -13 83 0
4 -13 88 0
9 -13 102 0
2 -12 -94 0
5 -12 -60 0
2 -12 57 0
6 -12 79 0
6 -12 88 0
8 -11 -110 0
9 -11 -87 0
2 -11 -85 0
3 -11 -80 0
4 -11 -17 0
9 -11 23 0
10 -11 28 0
2 -11 31 0
8 -11 39 0
2 -11 69 0
10 -11 81 0
8 -11 94 0
5 -11 95 0
8 -11 120 0
9 -10 -112 0
3 -10 -40 0
5 -10 -36 0
7 -10 -35 0
7 -10 -18 0
2 -10 78 0
5 -10 87 0
3 -9 -114 0
7 -9 -108 0
8 -9 -107 0
5 -9 -106 0
6 -9 -47 0
8 -9 -38 0
9 -9 -32 0
7 -9 -22 0
5 -9 -14 0
6 -9 48 0
5 -9 52 0
4 -9 79 0
7 -9 105 0
7 -9 109 0
7 -8 -111 0
5 -8 -103 0
6 -8 -94 0
8 -8 -92 0
3 -8 -91 0
7 -8 -74 0
8 -8 -72 0
1 -8 -45 0
2 -8 -44 0
6 -8 -36 0
10 -8 -21 0
4 -8 16 0
1 -8 39 0
7 -8 76 0
1 -7 -117 0
2 -7 -76 0
2 -7 -50 0
3 -7 -33 0
8 -7 -28 0
9 -7 -21 0
7 -7 45 0
4 -7 58 0
7 -7 59 0
6 -7 61 0
10 -7 69 0
2 -7 94 0
2 -7 109 0
5 -7 114 0
5 -6 -54 0
8 -6 -48 0
1 -6 -44 0
2 -6 -16 0
3 -6 52 0
6 -6 55 0
9 -6 86 0
5 -6 96 0
3 -6 108 0
7 -6 114 0
5 -5 -106 0
4 -5 -103 0
3 -5 -80 0
5 -5 -60 0
7 -5 -51 0
3 -5 -31 0
2 -5 -29 0
7 -5 6 0
5 -5 104 0
3 -4 -90 0
9 -4 -86 0
3 -4 -74 0
1 -4 -73 0
6 -4 -36 0
6 -4 -33 0
8 -4 32 0
2 -4 50 0
6 -4 71 0
8 -4 111 0
3 -3 -99 0
10 -3 -98 0
3 -3 -96 0
10 -3 -57 0
10 -3 -47 0
5 -3 -32 0
3 -3 33 0
6 -3 71 0
4 -3 96 0
7 -3 114 0
9 -2 -80 0
1 -2 -50 0
2 -2 -40 0
3 -2 -28 0
3 -2 113 0
6 -2 117 0
9 -1 -90 0
5 -1 -72 0
7 -1 -60 0
6 -1 -51 0
9 -1 -22 0
9 -1 13 0
5 -1 26 0
2 -1 42 0
10 -1 46 0
10 -1 93 0
7 1 -94 0
7 1 -80 0
2 1 -74 0
3 1 -58 0
6 1 -15 0
4 1 11 0
3 1 20 0
8 1 57 0
4 1 60 0
3 2 -119 0
3 2 -61 0
6 2 -31 0
8 2 -27 0
5 2 33 0
3 2 59 0
7 2 71 0
5 2 105 0
4 3 -70 0
8 3 -57 0
8 3 -38 0
10 3 26 0
7 3 34 0
3 3 47 0
7 3 50 0
3 3 62 0
2 3 84 0
6 3 96 0
7 3 99 0
3 3 100 0
6 3 111 0
6 3 112 0
9 3 117 0
3 4 -91 0
7 4 -20 0
2 4 16 0
8 4 46 0
1 4 55 0
4 4 69 0
6 4 71 0
4 4 91 0
6 4 99 0
8 5 -108 0
9 5 -98 0
4 5 -93 0
3 5 -87 0
2 5 -58 0
10 5 -35 0
8 5 -32 0
5 5 21 0
8 5 79 0
5 6 -101 0
5 6 -14 0
5 6 -13 0
7 6 10 0
2 6 16 0
7 6 21 0
8 6 38 0
7 6 46 0
4 6 67 0
9 6 78 0
3 6 101 0
9 6 110 0
8 6 118 0
6 7 -117 0
6 7 -101 0
9 7 -79 0
4 7 -25 0
7 7 -19 0
3 7 -11 0
9 7 59 0
10 7 116 0
7 8 -99 0
7 8 -63 0
9 8 62 0
1 8 72 0
9 8 103 0
10 8 113 0
10 9 -95 0
7 9 -90 0
5 9 -87 0
8 9 -85 0
2 9 -78 0
8 9 -73 0
4 9 -46 0
8 9 -42 0
9 9 -31 0
10 9 -18 0
6 9 -15 0
6 9 10 0
4 9 76 0
5 9 85 0
8 9 100 0
3 9 116 0
3 10 -106 0
4 10 -87 0
8 10 -55 0
2 10 -49 0
7 10 -37 0
5 10 -35 0
3 10 23 0
6 10 72 0
4 10 113 0
9 11 -118 0
3 11 -82 0
3 11 -22 0
10 11 -17 0
2 11 14 0
3 11 38 0
9 11 84 0
8 12 -113 0
7 12 -91 0
8 12 -74 0
9 12 -67 0
5 12 -20 0
1 12 57 0
7 12 72 0
4 12 103 0
10 12 110 0
3 13 -116 0
9 13 -115 0
3 13 -102 0
7 13 -101 0
8 13 -16 0
5 13 19 0
9 13 24 0
2 13 33 0
3 13 40 0
9 13 58 0
8 13 71 0
7 13 76 0
3 13 79 0
4 13 101 0
1 13 102 0
2 13 105 0
6 14 -116 0
4 14 -106 0
2 14 -94 0
7 14 -81 0
6 14 -28 0
10 14 22 0
4 14 34 0
3 14 50 0
7 14 80 0
3 14 83 0
7 14 103 0
8 14 113 0
9 14 118 0
10 15 -117 0
7 15 -114 0
2 15 -86 0
9 15 -74 0
10 15 -54 0
7 15 -44 0
7 15 -20 0
5 15 17 0
6 15 22 0
8 15 112 0
7 15 118 0
5 16 -117 0
6 16 -87 0
4 16 -61 0
7 16 27 0
8 16 48 0
4 16 109 0
8 17 -100 0
4 17 -64 0
6 17 -49 0
8 17 -22 0
10 17 46 0
2 17 69 0
8 17 73 0
4 17 76 0
4 17 117 0
6 18 -112 0
6 18 -109 0
9 18 -101 0
3 18 -83 0
5 18 -24 0
9 18 29 0
9 18 60 0
6 18 82 0
9 18 86 0
9 19 -117 0
3 19 -77 0
6 19 89 0
4 19 120 0
8 20 -110 0
3 20 -101 0
10 20 -77 0
3 20 -54 0
8 20 -41 0
3 20 -31 0
8 20 -22 0
7 20 70 0
6 20 81 0
6 20 90 0
10 21 -88 0
3 21 -53 0
4 21 25 0
9 21 30 0
4 21 62 0
2 21 78 0
4 21 79 0
6 22 -120 0
7 22 -115 0
9 22 -113 0
6 22 -100 0
9 22 -95 0
4 22 -64 0
5 22 -25 0
8 22 32 0
9 22 35 0
4 22 59 0
7 22 76 0
2 22 107 0
8 22 116 0
1 23 -120 0
8 23 40 0
2 23 44 0
1 23 95 0
10 24 -106 0
9 24 -70 0
4 24 -57 0
8 24 -26 0
5 24 78 0
9 24 85 0
4 24 106 0
5 24 113 0
2 25 -69 0
7 25 -60 0
5 25 -38 0
4 25 27 0
8 25 39 0
7 25 73 0
10 25 100 0
5 26 -57 0
6 26 -50 0
6 26 38 0
3 26 45 0
9 26 56 0
10 26 80 0
2 26 89 0
8 26 112 0
4 27 -113 0
8 27 -72 0
9 27 -53 0
2 27 -51 0
8 27 -46 0
7 27 -31 0
3 27 93 0
9 27 94 0
7 27 116 0
2 27 118 0
2 27 119 0
5 28 -117 0
6 28 -96 0
1 28 -80 0
8 28 -52 0
1 28 91 0
2 29 -89 0
5 29 -78 0
5 29 -64 0
5 29 -63 0
3 29 -51 0
2 29 -49 0
5 29 -42 0
6 29 49 0
7 29 62 0
10 29 70 0
9 29 76 0
6 29 104 0
9 30 -106 0
9 30 -76 0
4 30 -65 0
3 30 -46 0
7 30 -44 0
2 30 41 0
4 30 45 0
6 30 71 0
8 30 83 0
6 30 86 0
4 31 -114 0
5 31 -111 0
6 31 -85 0
6 31 -58 0
9 31 55 0
3 31 74 0
6 31 83 0
6 31 88 0
3 31 99 0
7 31 111 0
10 32 -75 0
7 32 -72 0
2 32 -50 0
2 32 -39 0
8 32 33 0
6 32 61 0
8 32 68 0
5 32 94 0
6 33 -118 0
6 33 -108 0
10 33 -83 0
5 33 -51 0
6 33 58 0
4 33 59 0
7 33 87 0
3 33 91 0
5 34 -102 0
1 34 -76 0
7 34 -46 0
4 34 -40 0
6 34 51 0
2 34 111 0
7 35 -113 0
3 35 -61 0
7 35 48 0
6 35 62 0
4 35 77 0
3 35 96 0
2 35 99 0
6 35 103 0
9 36 -118 0
2 36 -111 0
3 36 -108 0
10 36 -82 0
3 36 -54 0
9 36 -50 0
6 36 66 0
10 36 84 0
4 36 99 0
2 36 119 0
6 37 46 0
4 37 53 0
6 37 60 0
2 37 90 0
7 37 110 0
3 38 -113 0
4 38 -107 0
2 38 -100 0
3 38 -67 0
10 38 -57 0
5 38 -51 0
8 38 -48 0
2 38 45 0
2 38 52 0
10 38 70 0
7 38 83 0
7 38 100 0
4 39 -86 0
9 39 57 0
8 39 71 0
9 39 107 0
8 40 -66 0
9 40 -53 0
1 40 -46 0
7 40 73 0
2 40 84 0
10 40 117 0
3 41 -111 0
2 41 -91 0
4 41 -83 0
4 41 -81 0
7 41 -72 0
7 41 -69 0
9 41 -66 0
8 41 -59 0
3 41 -58 0
2 41 -52 0
1 41 67 0
4 42 -117 0
4 42 -43 0
1 42 83 0
8 42 94 0
2 42 109 0
2 42 114 0
9 43 -117 0
1 43 -115 0
8 43 -95 0
6 43 -55 0
4 43 -48 0
7 43 54 0
3 43 76 0
3 43 80 0
5 43 95 0
2 43 109 0
3 44 -108 0
2 44 -65 0
3 44 57 0
3 44 92 0
4 44 113 0
4 45 -107 0
5 45 48 0
8 45 80 0
1 46 64 0
2 46 78 0
6 46 82 0
8 47 -120 0
4 47 -90 0
7 47 -61 0
8 47 48 0
8 47 98 0
10 47 99 0
8 47 119 0
6 48 -102 0
2 48 -87 0
9 48 -78 0
4 48 69 0
2 48 70 0
8 48 74 0
9 48 90 0
5 48 100 0
5 48 101 0
2 48 110 0
7 48 111 0
9 48 114 0
3 49 -94 0
9 49 -77 0
10 49 -53 0
6 50 -107 0
2 50 -95 0
4 50 -56 0
9 50 -52 0
6 50 76 0
2 50 86 0
9 50 92 0
7 50 95 0
7 50 96 0
7 50 111 0
1 51 95 0
4 51 102 0
5 51 108 0
8 52 -115 0
4 52 -71 0
4 52 -59 0
3 52 73 0
5 52 74 0
3 52 76 0
7 52 86 0
6 53 -120 0
10 53 -97 0
6 53 -79 0
2 53 -73 0
5 53 69 0
7 53 80 0
8 53 96 0
3 53 104 0
9 53 110 0
7 54 -72 0
3 54 87 0
5 54 107 0
7 55 -97 0
6 55 -90 0
4 55 -79 0
3 55 -74 0
7 55 80 0
3 55 111 0
9 55 116 0
4 56 -75 0
9 56 87 0
10 57 -105 0
8 57 -85 0
4 57 -67 0
8 57 67 0
2 57 84 0
6 57 97 0
1 58 -116 0
6 58 -100 0
8 58 -59 0
7 59 -103 0
3 59 -92 0
8 59 95 0
2 60 -91 0
3 60 -79 0
3 60 61 0
8 60 83 0
1 60 114 0
5 61 -105 0
8 61 -94 0
7 61 -92 0
8 61 -76 0
3 61 104 0
4 61 111 0
4 61 114 0
5 62 -70 0
6 62 -69 0
10 62 69 0
7 62 96 0
6 62 114 0
4 63 -91 0
6 63 69 0
5 63 92 0
2 63 108 0
9 64 -110 0
3 64 -95 0
3 64 -75 0
5 64 91 0
3 64 94 0
9 65 -73 0
4 65 69 0
9 65 87 0
1 66 -85 0
2 66 -77 0
1 66 98 0
4 66 120 0
4 67 -78 0
8 67 -77 0
4 67 82 0
9 67 84 0
6 68 -101 0
10 68 -78 0
6 68 114 0
7 69 -118 0
4 69 -86 0
9 69 72 0
3 69 85 0
9 69 100 0
9 69 105 0
9 70 -91 0
5 70 103 0
3 71 93 0
5 71 100 0
9 71 103 0
4 72 -114 0
4 72 -105 0
2 72 90 0
7 73 -120 0
8 73 117 0
4 74 -91 0
5 74 79 0
2 74 87 0
3 74 105 0
5 75 -100 0
4 75 -99 0
3 75 -88 0
8 75 -79 0
7 75 -77 0
10 75 99 0
2 75 103 0
6 75 104 0
6 76 -120 0
2 76 -97 0
2 76 77 0
3 76 82 0
4 76 109 0
1 77 90 0
5 77 103 0
4 77 111 0
9 77 114 0
4 78 -95 0
8 78 -91 0
2 78 -82 0
8 78 80 0
7 78 87 0
6 78 117 0
2 79 -111 0
8 79 -96 0
2 79 -84 0
10 79 -82 0
2 79 107 0
7 80 -112 0
2 80 -111 0
3 80 -101 0
2 80 98 0
5 80 106 0
5 81 -95 0
9 82 -101 0
2 82 -95 0
5 82 86 0
1 82 98 0
6 82 100 0
10 83 -120 0
2 83 -102 0
7 83 -101 0
3 83 -93 0
6 83 -89 0
7 83 88 0
7 83 102 0
8 84 -93 0
6 84 99 0
10 84 106 0
6 84 115 0
8 85 -111 0
8 85 -97 0
2 85 -91 0
3 85 93 0
9 85 100 0
9 86 89 0
5 86 100 0
9 86 120 0
1 87 -112 0
1 87 -109 0
1 87 -93 0
4 87 -91 0
2 87 112 0
5 87 114 0
8 87 118 0
1 88 -105 0
5 88 -101 0
3 88 89 0
2 88 94 0
1 88 97 0
2 88 107 0
3 88 114 0
7 89 -111 0
4 90 -115 0
7 90 -104 0
4 90 100 0
10 90 104 0
6 91 -120 0
9 91 -118 0
9 91 96 0
1 91 106 0
7 92 -114 0
7 92 -104 0
3 92 -96 0
9 95 -114 0
6 95 99 0
2 95 110 0
4 96 117 0
5 97 -110 0
2 97 -109 0
4 97 -99 0
5 97 98 0
5 97 106 0
5 98 -111 0
9 98 -101 0
2 98 115 0
6 99 104 0
5 99 107 0
4 100 118 0
7 101 -103 0
5 104 107 0
5 105 -115 0
9 105 -112 0
2 105 115 0
9 106 -108 0
6 107 -115 0
6 107 -112 0
8 107 120 0
2 109 -118 0
5 112 -117 0
8 113 114 0
